decision_x1=[0,4];
decision_x2=[0,4];
decision_x3=[0,4];
decision_x4=[0,4];
decision_x5=[0,4];
random_y1=[0,4];
constraint_x2_x1=[
0,1,1.6|
0,2,3.5|
0,3,8.4|
0,4,7.8|
1,0,7.1|
1,2,3.4|
1,3,3.3|
1,4,7.3|
2,0,0.38|
2,1,0.29|
2,3,0.41|
2,4,7.9|
3,0,4.8|
3,1,6.1|
3,2,1.8|
3,4,2.9|
4,0,8.8|
4,1,5.6|
4,2,5|
4,3,4.8|
];
constraint_x3_x2=[
0,1,9.5|
0,2,0.19|
0,3,5.9|
0,4,8.4|
1,0,2.4|
1,2,4.9|
1,3,1.6|
1,4,7.7|
2,0,0.28|
2,1,5|
2,3,6.4|
2,4,2.2|
3,0,2.6|
3,1,1.6|
3,2,0.62|
3,4,1.2|
4,0,5.3|
4,1,4.3|
4,2,7.9|
4,3,2.2|
];
constraint_x4_x2=[
0,1,2.6|
0,2,1.7|
0,3,9.5|
0,4,0.5|
1,0,9.9|
1,2,1.2|
1,3,7.8|
1,4,2.1|
2,0,0.029|
2,1,3.9|
2,3,1.7|
2,4,2.6|
3,0,4.2|
3,1,0.42|
3,2,1.9|
3,4,4.4|
4,0,7|
4,1,3.1|
4,2,1.2|
4,3,5.9|
];
constraint_x4_x3=[
0,1,9.8|
0,2,4.8|
0,3,3.7|
0,4,7.3|
1,0,8.6|
1,2,4|
1,3,5.5|
1,4,7.3|
2,0,5.2|
2,1,9.4|
2,3,6.8|
2,4,3.9|
3,0,7.9|
3,1,1.7|
3,2,8.8|
3,4,0.96|
4,0,9.7|
4,1,7.2|
4,2,9|
4,3,5.4|
];
constraint_x5_x3=[
0,1,8.2|
0,2,6.6|
0,3,3.2|
0,4,10|
1,0,8.9|
1,2,0.89|
1,3,4.4|
1,4,5.2|
2,0,2|
2,1,1.9|
2,3,3|
2,4,0.24|
3,0,5.3|
3,1,2.9|
3,2,6.9|
3,4,6.2|
4,0,8.5|
4,1,5.9|
4,2,5.4|
4,3,3.1|
];
constraint_x1_y1=[
0,0,4|
0,1,6.2|
0,2,7.4|
0,3,4.6|
0,4,9.7|
1,0,6.1|
1,1,4.5|
1,2,4.1|
1,3,3|
1,4,7.5|
2,0,6.1|
2,1,9.8|
2,2,0.5|
2,3,0.57|
2,4,2.9|
3,0,0.37|
3,1,9.4|
3,2,1.2|
3,3,1.3|
3,4,8.4|
4,0,9.6|
4,1,7|
4,2,8.6|
4,3,3.2|
4,4,7.2|
];
initial_distribution_y1=[0.24,0.038,0.36,0.21,0.15];
transition_y1=[
0.26,0.27,0.21,0.21,0.048|
0.26,0.15,0.24,0.061,0.29|
0.36,0.036,0.25,0.11,0.24|
0.29,0.38,0.022,0.12,0.18|
0.32,0.19,0.22,0.02,0.25|
];
